solution status: gap limit reached
objective value:                          74105.80006
y#1                                                 1 	(obj:5700)
y#2                                                 1 	(obj:5700)
y#3                                                 1 	(obj:5700)
y#4                                                 1 	(obj:5700)
y#6                                                 1 	(obj:5700)
y#9                                                 1 	(obj:5700)
y#13                                                1 	(obj:5700)
y#17                                                1 	(obj:5700)
y#22                                                1 	(obj:5700)
y#24                                                1 	(obj:5700)
y#25                                                1 	(obj:5700)
y#29                                                1 	(obj:5700)
y#30                                                1 	(obj:5700)
x#1#1                                               1 	(obj:0.02737)
x#2#2                                               1 	(obj:0.04352)
x#3#30                                              1 	(obj:0.04199)
x#4#3                                               1 	(obj:0.10183)
x#5#25                                              1 	(obj:0.05814)
x#6#4                                               1 	(obj:0.06919)
x#7#2                                               1 	(obj:0.05355)
x#8#13                                              1 	(obj:0.00935)
x#9#29                                              1 	(obj:0.01802)
x#10#4                                              1 	(obj:0.01479)
x#11#13                                             1 	(obj:0.02278)
x#12#24                                             1 	(obj:0.0153)
x#13#13                                             1 	(obj:0.04437)
x#14#22                                             1 	(obj:0.01717)
x#15#3                                              1 	(obj:0.10387)
x#16#1                                              1 	(obj:0.02618)
x#17#30                                             1 	(obj:0.02346)
x#18#13                                             1 	(obj:0.05712)
x#19#30                                             1 	(obj:0.00765)
x#20#30                                             1 	(obj:0.01037)
x#21#24                                             1 	(obj:0.02669)
x#22#29                                             1 	(obj:0.04012)
x#23#24                                             1 	(obj:0.02737)
x#24#6                                              1 	(obj:0.02193)
x#25#30                                             1 	(obj:0.02397)
x#26#17                                             1 	(obj:0.01309)
x#27#25                                             1 	(obj:0.01309)
x#28#13                                             1 	(obj:0.04879)
x#29#29                                             1 	(obj:0.01496)
x#30#2                                              1 	(obj:0.09435)
x#31#6                                              1 	(obj:0.01904)
x#32#24                                             1 	(obj:0.01054)
x#33#2                                              1 	(obj:0.08483)
x#34#1                                              1 	(obj:0.00646)
x#35#25                                             1 	(obj:0.01887)
x#36#24                                             1 	(obj:0.00901)
x#37#13                                             1 	(obj:0.04369)
x#38#17                                             1 	(obj:0.02703)
x#39#1                                              1 	(obj:0.01275)
x#40#29                                             1 	(obj:0.02771)
x#41#3                                              1 	(obj:0.09945)
x#42#1                                              1 	(obj:0.1462)
x#43#22                                             1 	(obj:0.16456)
x#44#30                                             1 	(obj:0.02975)
x#45#13                                             1 	(obj:0.0459)
x#46#25                                             1 	(obj:0.03196)
x#47#17                                             1 	(obj:0.02992)
x#48#17                                             1 	(obj:0.02465)
x#49#25                                             1 	(obj:0.03366)
x#50#22                                             1 	(obj:0.03876)
x#51#6                                              1 	(obj:0.12529)
x#52#4                                              1 	(obj:0.03298)
x#53#2                                              1 	(obj:0.02618)
x#54#9                                              1 	(obj:0.11696)
x#55#30                                             1 	(obj:0.03298)
x#56#3                                              1 	(obj:0.05049)
x#57#4                                              1 	(obj:0.03213)
x#58#2                                              1 	(obj:0.07701)
x#59#4                                              1 	(obj:0.02193)
x#60#22                                             1 	(obj:0.0255)
x#61#3                                              1 	(obj:0.11832)
x#62#29                                             1 	(obj:0.10472)
x#63#2                                              1 	(obj:0.03315)
x#64#2                                              1 	(obj:0.03774)
x#65#6                                              1 	(obj:0.05015)
x#66#9                                              1 	(obj:0.03893)
x#67#22                                             1 	(obj:0.02125)
x#68#9                                              1 	(obj:0.03706)
x#69#3                                              1 	(obj:0.01105)
x#70#4                                              1 	(obj:0.068)
x#71#25                                             1 	(obj:0.00731)
x#72#9                                              1 	(obj:0.05559)
x#73#25                                             1 	(obj:0.01241)
x#74#2                                              1 	(obj:0.0306)
x#75#1                                              1 	(obj:0.04845)
x#76#17                                             1 	(obj:0.07582)
x#77#13                                             1 	(obj:0.0017)
x#78#1                                              1 	(obj:0.04012)
x#79#6                                              1 	(obj:0.01717)
x#80#24                                             1 	(obj:0.0051)
x#81#1                                              1 	(obj:0.02363)
x#82#1                                              1 	(obj:0.02669)
x#83#22                                             1 	(obj:0.04913)
x#84#17                                             1 	(obj:0.02584)
x#85#29                                             1 	(obj:0.0187)
x#86#4                                              1 	(obj:0.01445)
x#87#9                                              1 	(obj:0.00391)
x#88#29                                             1 	(obj:0.02856)
x#89#24                                             1 	(obj:0.01853)
x#90#22                                             1 	(obj:0.02635)
x#91#24                                             1 	(obj:0.00969)
x#92#6                                              1 	(obj:0.04845)
x#93#3                                              1 	(obj:0.03927)
x#94#30                                             1 	(obj:0.01207)
x#95#22                                             1 	(obj:0.04131)
x#96#3                                              1 	(obj:0.03944)
x#97#3                                              1 	(obj:0.04148)
x#98#9                                              1 	(obj:0.04182)
x#99#2                                              1 	(obj:0.03774)
x#100#17                                            1 	(obj:0.0102)
x#101#4                                             1 	(obj:0.03281)
x#102#9                                             1 	(obj:0.01972)
x#103#17                                            1 	(obj:0.03961)
x#104#4                                             1 	(obj:0.00408)
x#105#6                                             1 	(obj:0.04556)
x#106#6                                             1 	(obj:0.05117)
x#107#22                                            1 	(obj:0.02006)
x#108#13                                            1 	(obj:0.01462)
x#109#24                                            1 	(obj:0.05882)
x#110#1                                             1 	(obj:0.05083)
x#111#3                                             1 	(obj:0.02057)
x#112#22                                            1 	(obj:0.04301)
x#113#25                                            1 	(obj:0.05185)
x#114#29                                            1 	(obj:0.03332)
x#115#25                                            1 	(obj:0.0204)
x#116#4                                             1 	(obj:0.05355)
x#117#1                                             1 	(obj:0.03927)
x#118#29                                            1 	(obj:0.0289)
x#119#6                                             1 	(obj:0.04318)
x#120#29                                            1 	(obj:0.04624)
x#121#4                                             1 	(obj:0.01853)
x#122#29                                            1 	(obj:0.03162)
x#123#3                                             1 	(obj:0.07191)
x#124#24                                            1 	(obj:0.00884)
x#125#22                                            1 	(obj:0.05678)
x#126#2                                             1 	(obj:0.01751)
x#127#25                                            1 	(obj:0.03043)
x#128#9                                             1 	(obj:0.12614)
x#129#13                                            1 	(obj:0.03434)
x#130#6                                             1 	(obj:0.01581)
x#131#17                                            1 	(obj:0.05695)
x#132#6                                             1 	(obj:0.05559)
x#133#13                                            1 	(obj:0.01462)
x#134#17                                            1 	(obj:0.0204)
x#135#25                                            1 	(obj:0.04114)
x#136#9                                             1 	(obj:0.01615)
x#137#6                                             1 	(obj:0.01207)
x#138#30                                            1 	(obj:0.02074)
x#139#9                                             1 	(obj:0.04488)
x#140#9                                             1 	(obj:0.04063)
x#141#30                                            1 	(obj:0.02652)
x#142#25                                            1 	(obj:0.01768)
x#143#24                                            1 	(obj:0.0493)
x#144#30                                            1 	(obj:0.03706)
x#145#3                                             1 	(obj:0.10421)
x#146#24                                            1 	(obj:0.02482)
x#147#17                                            1 	(obj:0.02669)
x#148#9                                             1 	(obj:0.04471)
x#149#2                                             1 	(obj:0.03264)
x#150#1                                             1 	(obj:0.07531)
